<instance format="XCSP3" type="CSP">
  <variables>
    <var id="x0"> 4 15 17 </var>
    <var id="x1"> 2 6 11 17 </var>
    <var id="x2"> 2 4 11 17 </var>
    <var id="x3"> 0 2 6 11 13 17 </var>
    <var id="x4"> 6 11 17 </var>
    <var id="x5"> 0 2 4 11 17 </var>
    <var id="x6"> 6 11 13 15 </var>
    <var id="x7"> 0 15 </var>
    <var id="x8"> 7 14 </var>
    <var id="x9"> 5 7 </var>
    <var id="x10"> 0 5 11 </var>
    <var id="x11"> 0 1 11 </var>
    <var id="x12"> 1 11 14 </var>
    <var id="x13"> 0 5 10 11 </var>
    <var id="x14"> 0 1 </var>
    <var id="x15"> 2 3 5 7 13 17 </var>
    <var id="x16"> 2 5 11 17 </var>
    <var id="x17"> 2 3 11 17 </var>
    <var id="x18"> 5 10 11 17 </var>
    <var id="x19"> 2 3 7 11 17 </var>
    <var id="x20"> 7 10 11 13 </var>
    <var id="x21"> 3 11 13 </var>
    <var id="x22"> 2 3 13 </var>
    <var id="x23"> 3 5 12 17 </var>
    <var id="x24"> 0 1 3 12 16 </var>
    <var id="x25"> 1 5 17 </var>
    <var id="x26"> 0 3 5 17 </var>
    <var id="x27"> 1 5 12 17 </var>
    <var id="x28"> 0 15..17 </var>
    <var id="x29"> 1 3 16 17 </var>
    <var id="x30"> 0 1 12 17 </var>
    <var id="x31"> 8 </var>
    <var id="x32"> 2 3 8 12 13 </var>
    <var id="x33"> 0 2 3 11 13 </var>
    <var id="x34"> 0..2 11 12 </var>
    <var id="x35"> 11..13 </var>
    <var id="x36"> 3 8 13 </var>
    <var id="x37"> 1 3 11 13 </var>
    <var id="x38"> 0..3 13 </var>
    <var id="x39"> 0 2 17 </var>
    <var id="x40"> 0..3 </var>
    <var id="x41"> 1 2 7 10 17 </var>
    <var id="x42"> 0 17 </var>
    <var id="x43"> 0..2 10 17 </var>
    <var id="x44"> 1 3 13 </var>
    <var id="x45"> 0 3 7 10 </var>
    <var id="x46"> 0..2 13 17 </var>
    <var id="x47"> 8 15..17 </var>
    <var id="x48"> 11 16 </var>
    <var id="x49"> 5 11 17 </var>
    <var id="x50"> 8 11 15..17 </var>
    <var id="x51"> 10 11 17 </var>
    <var id="x52"> 11 16 17 </var>
    <var id="x53"> 5 10 15 16 </var>
    <var id="x54"> 3 6 9 11 </var>
    <var id="x55"> 4 5 11 </var>
    <var id="x56"> 0 3 5 6 11 </var>
    <var id="x57"> 5 6 11 </var>
    <var id="x58"> 0 4 11 </var>
    <var id="x59"> 3 11 16 </var>
    <var id="x60"> 3 6 16 </var>
    <var id="x61"> 0 4 5 9 11 </var>
    <var id="x62"> 17 </var>
    <var id="x63"> 1 14 17 </var>
    <var id="x64"> 1 10 12 17 </var>
    <var id="x65"> 1 14 16 17 </var>
    <var id="x66"> 10 12 13 16 </var>
    <var id="x67"> 13 14 16 17 </var>
    <var id="x68"> 1 4 13 14 16 </var>
    <var id="x69"> 4 10 13 17 </var>
    <var id="x70"> 2 12 17 </var>
    <var id="x71"> 1 2 17 </var>
    <var id="x72"> 0..2 12 16 </var>
    <var id="x73"> 1 2 4 10 17 </var>
    <var id="x74"> 1 2 16 17 </var>
    <var id="x75"> 16 17 </var>
    <var id="x76"> 1 4 16 </var>
    <var id="x77"> 0 10 16 </var>
    <var id="x78"> 2 5 8 17 </var>
    <var id="x79"> 0 2 5 6 8 11 17 </var>
    <var id="x80"> 0 2 11 </var>
    <var id="x81"> 2 11 14 17 </var>
    <var id="x82"> 6 11 </var>
    <var id="x83"> 6 8 14 17 </var>
    <var id="x84"> 0 5 14 </var>
    <var id="x85"> 0 5 11 17 </var>
    <var id="x86"> 8 15..17 </var>
    <var id="x87"> 6 8 11 17 </var>
    <var id="x88"> 1 11 17 </var>
    <var id="x89"> 6 8 11 15..17 </var>
    <var id="x90"> 6 11 13 15 16 </var>
    <var id="x91"> 1 11 13 15 16 </var>
    <var id="x92"> 11 13 17 </var>
    <var id="x93"> 1 8 13 17 </var>
    <var id="x94"> 2 5 6 11 </var>
    <var id="x95"> 1 5 6 11 12 </var>
    <var id="x96"> 6 11 16 </var>
    <var id="x97"> 1 2 11 12 </var>
    <var id="x98"> 5 16 </var>
    <var id="x99"> 1 2 6 16 </var>
    <var id="x100"> 1 2 12 </var>
    <var id="x101"> 3 8 13 17 </var>
    <var id="x102"> 6 8 9 11 17 </var>
    <var id="x103"> 3 6 9 11 17 </var>
    <var id="x104"> 3 6 11 13 17 </var>
    <var id="x105"> 4 6 8 11 17 </var>
    <var id="x106"> 4 9 11 13 17 </var>
    <var id="x107"> 3 6 13 </var>
    <var id="x108"> 8 13 17 </var>
    <var id="x109"> 8 14 15 17 </var>
    <var id="x110"> 2 3 8 13 17 </var>
    <var id="x111"> 2 3 9 </var>
    <var id="x112"> 8 17 </var>
    <var id="x113"> 2 3 14 17 </var>
    <var id="x114"> 3 14 15 </var>
    <var id="x115"> 9 13 17 </var>
    <var id="x116"> 2 3 13 14 </var>
    <var id="x117"> 2 6 8 11 </var>
    <var id="x118"> 2 3 6 11 14 </var>
    <var id="x119"> 2 3 6 11 </var>
    <var id="x120"> 6 8 11 </var>
    <var id="x121"> 2 4 11 </var>
    <var id="x122"> 6 7 11 </var>
    <var id="x123"> 3 6 8 14 </var>
    <var id="x124"> 2 3 6 14 </var>
    <var id="x125"> 7 14 16 17 </var>
    <var id="x126"> 1 3 9 11 14 17 </var>
    <var id="x127"> 1 7 11 17 </var>
    <var id="x128"> 11 16 17 </var>
    <var id="x129"> 7 11 16 </var>
    <var id="x130"> 1 3 11 14 16 </var>
    <var id="x131"> 1 3 14 16 </var>
    <var id="x132"> 1 17 </var>
    <var id="x133"> 0 2 12 16 </var>
    <var id="x134"> 2 7 17 </var>
    <var id="x135"> 0 6 16 17 </var>
    <var id="x136"> 0 2 12 17 </var>
    <var id="x137"> 6 14 16 17 </var>
    <var id="x138"> 0 7 14 16 </var>
    <var id="x139"> 0 17 </var>
    <var id="x140"> 0 2 6 14 16 </var>
  </variables>
  <constraints>
    <group>
      <allDifferent> %... </allDifferent>
      <args> x0 x1 x2 x3 x4 x5 x6 x7 </args>
      <args> x8 x9 x10 x11 x12 x13 x14 </args>
      <args> x15 x16 x17 x18 x19 x20 x21 x22 </args>
      <args> x23 x24 x25 x26 x27 x28 x29 x30 </args>
      <args> x31 x32 x33 x34 x35 x36 x37 x38 </args>
      <args> x39 x40 x41 x42 x43 x44 x45 x46 </args>
      <args> x47 x48 x49 x50 x51 x52 x53 </args>
      <args> x54 x55 x56 x57 x58 x59 x60 x61 </args>
      <args> x62 x63 x64 x65 x66 x67 x68 x69 </args>
      <args> x70 x71 x72 x73 x74 x75 x76 x77 </args>
      <args> x78 x79 x80 x81 x82 x83 x84 x85 </args>
      <args> x86 x87 x88 x89 x90 x91 x92 x93 </args>
      <args> x94 x95 x96 x97 x98 x99 x100 </args>
      <args> x101 x102 x103 x104 x105 x106 x107 x108 </args>
      <args> x109 x110 x111 x112 x113 x114 x115 x116 </args>
      <args> x117 x118 x119 x120 x121 x122 x123 x124 </args>
      <args> x125 x126 x127 x128 x129 x130 x131 x132 </args>
      <args> x133 x134 x135 x136 x137 x138 x139 x140 </args>
      <args> x0 x8 x31 x47 x86 x109 x125 </args>
      <args> x9 x15 x23 x32 x70 x78 x101 x110 </args>
      <args> x10 x16 x39 x62 x79 x87 x102 x117 </args>
      <args> x1 x17 x54 x63 x71 x103 x118 x126 </args>
      <args> x11 x24 x40 x48 x72 x80 x111 x133 </args>
      <args> x2 x25 x41 x55 x73 x88 x127 x134 </args>
      <args> x3 x26 x33 x49 x56 x94 x104 x119 </args>
      <args> x4 x18 x27 x57 x64 x95 x112 x120 </args>
      <args> x28 x42 x50 x89 x96 x105 x128 x135 </args>
      <args> x5 x34 x43 x51 x58 x97 x121 x136 </args>
      <args> x19 x29 x52 x59 x65 x74 x81 x113 </args>
      <args> x6 x20 x35 x66 x82 x90 x122 x129 </args>
      <args> x36 x60 x67 x75 x83 x123 x137 </args>
      <args> x12 x21 x37 x44 x68 x76 x91 x130 </args>
      <args> x7 x45 x53 x77 x84 x98 x114 x138 </args>
      <args> x13 x61 x69 x85 x92 x106 x115 x139 </args>
      <args> x22 x38 x99 x107 x116 x124 x131 x140 </args>
      <args> x14 x30 x46 x93 x100 x108 x132 </args>
    </group>
  </constraints>
</instance>

